c This is QMaxSAT 2017 based on 14.07
c This is Glucose 3.0
c This is MiniSat 2.2.0
c WARNING: for repeatability, setting FPU to use double precision
c card = mrwto, comp = 0, pmodel = 0, narr = 3, mct = 52, verb = 0
cr firstCPXsol 0 0 0
c top = 1525567
c |  Number of variables:    5832                                             |
c |  Number of clauses:      293460                                           |
c |  Weight of hard clauses: 1525567                                          |
c |  Number of soft clauses: 8568                                             |
c |  Number of unit soft clauses: 0                                           |
c |  Maximum Cardinality (by unit): 4835454      (0           )               |
c last restart ## conflicts  :  0 129 
o 10791 | cpuTime 0.038994 s
c Sum of weights = 1611818
c A number of soft clauses remained = 2856
c MRWTO encoding for Pseudo-Boolean Constraints
c sizeMax=10791
c No.0 Divisor=11	generated by pow1
c No.1 Divisor=10	generated by pow1
c No.2 Divisor=11	generated by pow1
c No.3 Divisor=11	generated by pow1
c p0= 11	p1= 10	p2= 11	p3= 11	
c number of digits = 5
c linkingVar[0].size = 11, linkingVar[1].size = 10, linkingVar[2].size = 11, linkingVar[3].size = 9, linkingVar[4].size = 1, 
c Pseudo-Boolean Constraints: 80216 variables and 754361 clauses
c Sum of weights = 1611818
c A number of soft clauses remained = 2856
c MRWTO encoding for Pseudo-Boolean Constraints
c sizeMax=10791
c No.0 Divisor=11	generated by pow1
c No.1 Divisor=10	generated by pow1
c No.2 Divisor=11	generated by pow1
c No.3 Divisor=11	generated by pow1
c p0= 11	p1= 10	p2= 11	p3= 11	
c number of digits = 5
c linkingVar[0].size = 11, linkingVar[1].size = 10, linkingVar[2].size = 11, linkingVar[3].size = 9, linkingVar[4].size = 1, 
c Pseudo-Boolean Constraints: 80216 variables and 754361 clauses
c Sum of weights = 1611818
c A number of soft clauses remained = 2856
c MRWTO encoding for Pseudo-Boolean Constraints
c sizeMax=10791
c No.0 Divisor=11	generated by pow1
c No.1 Divisor=10	generated by pow1
c No.2 Divisor=11	generated by pow1
c No.3 Divisor=11	generated by pow1
c p0= 11	p1= 10	p2= 11	p3= 11	
c number of digits = 5
c linkingVar[0].size = 11, linkingVar[1].size = 10, linkingVar[2].size = 11, linkingVar[3].size = 9, linkingVar[4].size = 1, 
c Pseudo-Boolean Constraints: 80216 variables and 754361 clauses
c last restart ## conflicts  :  479 5691 
o 10172 | cpuTime 33.6339 s
c last restart ## conflicts  :  925 4037 
o 8911 | cpuTime 42.2761 s
c last restart ## conflicts  :  1738 3572 
o 8587 | cpuTime 51.4378 s
c last restart ## conflicts  :  924 3385 
o 8420 | cpuTime 69.4144 s
c last restart ## conflicts  :  650 3199 
o 7974 | cpuTime 172.294 s
s UNKNOWN
c Search is stopped by a limit (maybe time-limit)
cr positiVarArr: [ | 24(1->22) | 76(1->20) | 140(1->30) | 196(2->32) | 236(3->18) | 289(4->17) | 374(5->48) | 418(6->38) | 467(7->33) | 533(8->45) | 550(9->8) | 638(10->42) | 693(11->43) | 715(12->11) | 810(13->52) | 825(14->13) | 871(15->5) | 946(16->26) | 993(17->19) | 1059(18->31) | 1091(19->9) | 1148(20->12) | 1213(21->23) | 1285(22->41) | 1298(23->1) | 1367(24->15) | 1405(25->1) | 1485(26->25) | 1561(27->47) | 1575(28->7) | 1626(29->4) | 1704(30->28) | 1751(31->21) | 1785(32->1) | 1888(33->50) | 1927(34->35) | 1982(35->36) | 2039(36->39) | 2094(37->40) | 2145(38->37) | 2211(39->49) | 2230(40->14) | 2316(41->46) | 2327(42->3) | 2407(43->29) | 2466(44->34) | 2496(45->10) | 2584(46->44) | 2610(47->16) | 2654(48->6) | 2726(49->24) | 2807(50->51) | 2812(51->2) | 2891(52->27) | ]
cr the 1-th chain: [ 1->22->41->46->44->34->35->36->39->49->24->15->5->48->6->38->37->40->14->13->52->27->47->16->26->25->1 ] (#non-depot=25) {#cumul.=26}
cr the 2-th chain: [ 1->20->12->11->43->29->4->17->19->9->8->45->10->42->3->18->31->21->23->1 ] (#non-depot=18) {#cumul.=44}
cr the 3-th chain: [ 1->30->28->7->33->50->51->2->32->1 ] (#non-depot=8) {#cumul.=52}
c Latest Answer = 0 by 6 loops
c restarts              : 59473
c conflicts             : 11298915       (3144 /sec)
c decisions             : 82968381       (0.00 % random) (23085 /sec)
c propagations          : 8619032269     (2398185 /sec)
c conflict literals     : 2593650648     (4.72 % deleted)
c Memory used           : 1074.00 MB
c CPU time              : 3593.98 s
